c Created with the Wolfram Language : www.wolfram.com
c 
p edge 70 355
e 4 5
e 3 6
e 4 9
e 5 9
e 1 10
e 2 10
e 3 11
e 11 12
e 12 13
e 3 14
e 7 14
e 12 15
e 3 16
e 5 16
e 3 17
e 4 17
e 8 17
e 12 18
e 4 19
e 5 19
e 18 19
e 7 20
e 15 20
e 1 21
e 4 21
e 6 21
e 1 22
e 2 23
e 6 23
e 10 23
e 12 23
e 13 23
e 2 24
e 4 24
e 9 24
e 12 24
e 22 24
e 2 25
e 21 25
e 22 25
e 5 26
e 6 26
e 3 27
e 7 27
e 21 27
e 2 28
e 13 28
e 1 29
e 14 29
e 19 29
e 26 29
e 7 30
e 10 30
e 28 30
e 3 31
e 9 31
e 13 31
e 16 31
e 23 31
e 24 31
e 2 32
e 10 32
e 27 32
e 29 32
e 3 33
e 8 33
e 10 33
e 18 33
e 19 33
e 28 33
e 32 33
e 6 34
e 11 34
e 12 34
e 17 34
e 18 34
e 20 34
e 29 34
e 30 34
e 1 35
e 9 35
e 22 35
e 27 35
e 28 35
e 29 35
e 32 35
e 33 35
e 7 36
e 11 36
e 13 36
e 14 36
e 22 36
e 25 36
e 26 36
e 28 36
e 6 37
e 9 37
e 36 37
e 2 38
e 9 38
e 10 38
e 21 38
e 26 38
e 35 38
e 3 39
e 33 39
e 38 39
e 1 40
e 6 40
e 9 40
e 14 40
e 18 40
e 35 40
e 4 41
e 8 41
e 10 41
e 26 41
e 31 41
e 5 42
e 13 42
e 14 42
e 17 42
e 28 42
e 30 42
e 32 42
e 1 43
e 4 43
e 10 43
e 19 43
e 20 43
e 25 43
e 34 43
e 36 43
e 37 43
e 40 43
e 42 43
e 8 44
e 14 44
e 21 44
e 22 44
e 24 44
e 42 44
e 1 45
e 9 45
e 13 45
e 21 45
e 23 45
e 24 45
e 37 45
e 40 45
e 42 45
e 43 45
e 3 46
e 7 46
e 19 46
e 23 46
e 30 46
e 37 46
e 40 46
e 21 47
e 29 47
e 3 48
e 4 48
e 9 48
e 14 48
e 15 48
e 20 48
e 38 48
e 8 49
e 19 49
e 20 49
e 27 49
e 28 49
e 36 49
e 40 49
e 48 49
e 2 50
e 24 50
e 33 50
e 39 50
e 45 50
e 1 51
e 7 51
e 9 51
e 16 51
e 17 51
e 20 51
e 34 51
e 35 51
e 36 51
e 37 51
e 47 51
e 50 51
e 8 52
e 14 52
e 18 52
e 28 52
e 30 52
e 35 52
e 37 52
e 43 52
e 50 52
e 30 53
e 32 53
e 33 53
e 44 53
e 1 54
e 2 54
e 21 54
e 37 54
e 39 54
e 41 54
e 46 54
e 53 54
e 11 55
e 27 55
e 34 55
e 37 55
e 40 55
e 52 55
e 22 56
e 26 56
e 39 56
e 44 56
e 52 56
e 7 57
e 18 57
e 29 57
e 32 57
e 33 57
e 44 57
e 45 57
e 54 57
e 3 58
e 7 58
e 11 58
e 24 58
e 28 58
e 29 58
e 32 58
e 37 58
e 38 58
e 42 58
e 45 58
e 50 58
e 13 59
e 16 59
e 18 59
e 38 59
e 57 59
e 4 60
e 10 60
e 17 60
e 23 60
e 34 60
e 45 60
e 48 60
e 10 61
e 18 61
e 19 61
e 20 61
e 26 61
e 35 61
e 38 61
e 53 61
e 58 61
e 59 61
e 7 62
e 9 62
e 18 62
e 43 62
e 7 63
e 14 63
e 16 63
e 19 63
e 37 63
e 41 63
e 44 63
e 45 63
e 46 63
e 47 63
e 50 63
e 6 64
e 8 64
e 12 64
e 20 64
e 23 64
e 25 64
e 28 64
e 30 64
e 41 64
e 46 64
e 47 64
e 39 65
e 41 65
e 48 65
e 61 65
e 63 65
e 64 65
e 3 66
e 6 66
e 7 66
e 11 66
e 12 66
e 14 66
e 25 66
e 32 66
e 38 66
e 39 66
e 42 66
e 51 66
e 53 66
e 1 67
e 4 67
e 6 67
e 18 67
e 21 67
e 23 67
e 27 67
e 33 67
e 53 67
e 55 67
e 3 68
e 6 68
e 7 68
e 8 68
e 9 68
e 33 68
e 36 68
e 40 68
e 45 68
e 50 68
e 52 68
e 59 68
e 60 68
e 64 68
e 12 69
e 27 69
e 47 69
e 50 69
e 52 69
e 62 69
e 65 69
e 1 70
e 4 70
e 9 70
e 10 70
e 19 70
e 29 70
e 42 70
e 54 70
e 55 70
e 58 70
e 64 70
e 68 70
